c Random generated cnf formula, satisfiable: true
p cnf 10 50
-5 1 6 0
-7 2 8 0
-4 -9 -8 0
-1 -9 2 0
7 -8 -9 0
6 7 4 0
-5 -7 -9 0
6 -9 4 0
-1 -8 10 0
-3 2 6 0
-10 2 6 0
-1 3 -10 0
-10 2 3 0
-1 -10 7 0
-7 9 -8 0
-5 -4 -2 0
-2 -10 -3 0
9 -3 -2 0
2 -7 4 0
-7 -10 2 0
-6 7 1 0
-8 10 9 0
-2 5 -9 0
-6 3 4 0
-6 1 10 0
-8 -5 9 0
-1 -4 5 0
-1 4 10 0
-1 -7 -8 0
-4 -9 5 0
-9 -4 5 0
9 5 -3 0
3 -6 -2 0
-6 -10 -1 0
2 -6 7 0
-8 -3 -4 0
-5 2 -9 0
-6 9 -1 0
-10 8 2 0
9 5 -6 0
-7 1 -8 0
10 -4 1 0
9 -2 -8 0
-9 7 10 0
7 -8 2 0
6 -7 -2 0
6 1 -9 0
-9 6 -8 0
-6 1 -10 0
-3 -6 9 0
